0 4867
2401 4771
4802 4680
7203 4591
9604 4521
12005 4450
14406 4399
16807 4346
19208 4325
21609 4270
24010 4245
26411 4224
28812 4185
31213 4172
33614 4150
36015 4135
38416 4110
40817 4103
43218 4100
45619 4096
50421 4094
52822 4088
55223 4075
57624 4070
64827 4064
67228 4050
69629 4043
72030 4037
74431 4033
76832 4028
79233 4027
81634 4007
84035 4006
124852 4004
127253 4003
129654 3998
132055 3997
134456 3994
136857 3987
139258 3978
146461 3977
148862 3974
276115 3971
